c turning on binary mode checking
c parsing input formula with 53279 variables and 383487 clauses
c finished parsing, read 11175672 bytes from proof file
c detected empty clause; start verification via backward checking
c 31792 of 383487 clauses in core                            
c 31436 of 182781 lemmas in core using 1805354 resolution steps
c 0 RAT lemmas in core; 26260 redundant literals in core lemmas
s VERIFIED
c verification time: 2.379 seconds
